* #variable= 142 #constraint= 126
* Constraints for _ZN10CharBuffer11CurrentSizeEv
min:  +600 x61 +800 x136 +400 x137 +400 x138 +400 x139 +400 x140 +400 x141 +400 x142 -1 x62 -1 x5 -1 x50;
* Callee-save Registers
 -1 x3 -1 x16 -1 x17 -1 x18 -1 x19 -1 x20 -1 x21 -1 x22 -1 x23 -1 x24 -1 x25 -1 x26 -1 x27 -1 x28 -1 x29 -1 x30 -1 x31 -1 x32 -1 x33 -1 x34 -1 x35 -1 x36 -1 x37 -1 x38 -1 x39 -1 x40 -1 x41 -1 x42 -1 x43 -1 x44 -1 x45 -1 x46 -1 x47 -1 x48 -1 x49 -1 x50 -1 x51 -1 x52 -1 x53 -1 x54 -1 x55 -1 x56 -1 x57 -1 x58 -1 x59 -1 x60 -1 x64 -1 x121 -1 x122 -1 x123 -1 x124 -1 x125 -1 x126 -1 x127 -1 x128 -1 x129 -1 x130 -1 x131 -1 x132 -1 x133 -1 x134 -1 x135 -1 x92 -1 x93 -1 x94 -1 x95 -1 x96 -1 x97 -1 x98 -1 x99 -1 x100 -1 x101 -1 x102 -1 x103 -1 x104 -1 x105 -1 x106 -1 x107 -1 x108 -1 x109 -1 x110 -1 x111 -1 x112 -1 x113 -1 x114 -1 x115 -1 x116 -1 x117 -1 x118 -1 x119 -1 x120 -1 x121 -1 x122 -1 x123 -1 x124 -1 x125 -1 x126 -1 x127 -1 x128 -1 x129 -1 x130 -1 x131 -1 x132 -1 x133 -1 x134 -1 x135 +106 x137 >= 0;
 -1 ~x3 -1 ~x16 -1 ~x17 -1 ~x18 -1 ~x19 -1 ~x20 -1 ~x21 -1 ~x22 -1 ~x23 -1 ~x24 -1 ~x25 -1 ~x26 -1 ~x27 -1 ~x28 -1 ~x29 -1 ~x30 -1 ~x31 -1 ~x32 -1 ~x33 -1 ~x34 -1 ~x35 -1 ~x36 -1 ~x37 -1 ~x38 -1 ~x39 -1 ~x40 -1 ~x41 -1 ~x42 -1 ~x43 -1 ~x44 -1 ~x45 -1 ~x46 -1 ~x47 -1 ~x48 -1 ~x49 -1 ~x50 -1 ~x51 -1 ~x52 -1 ~x53 -1 ~x54 -1 ~x55 -1 ~x56 -1 ~x57 -1 ~x58 -1 ~x59 -1 ~x60 -1 ~x64 -1 ~x121 -1 ~x122 -1 ~x123 -1 ~x124 -1 ~x125 -1 ~x126 -1 ~x127 -1 ~x128 -1 ~x129 -1 ~x130 -1 ~x131 -1 ~x132 -1 ~x133 -1 ~x134 -1 ~x135 -1 ~x92 -1 ~x93 -1 ~x94 -1 ~x95 -1 ~x96 -1 ~x97 -1 ~x98 -1 ~x99 -1 ~x100 -1 ~x101 -1 ~x102 -1 ~x103 -1 ~x104 -1 ~x105 -1 ~x106 -1 ~x107 -1 ~x108 -1 ~x109 -1 ~x110 -1 ~x111 -1 ~x112 -1 ~x113 -1 ~x114 -1 ~x115 -1 ~x116 -1 ~x117 -1 ~x118 -1 ~x119 -1 ~x120 -1 ~x121 -1 ~x122 -1 ~x123 -1 ~x124 -1 ~x125 -1 ~x126 -1 ~x127 -1 ~x128 -1 ~x129 -1 ~x130 -1 ~x131 -1 ~x132 -1 ~x133 -1 ~x134 -1 ~x135 +106 ~x137 >= -105;
 -1 x12 -1 x16 -1 x17 -1 x18 -1 x19 -1 x20 -1 x21 -1 x22 -1 x23 -1 x24 -1 x25 -1 x26 -1 x27 -1 x28 -1 x29 -1 x30 -1 x31 -1 x32 -1 x33 -1 x34 -1 x35 -1 x36 -1 x37 -1 x38 -1 x39 -1 x40 -1 x41 -1 x42 -1 x43 -1 x44 -1 x45 -1 x46 -1 x47 -1 x48 -1 x49 -1 x50 -1 x51 -1 x52 -1 x53 -1 x54 -1 x55 -1 x56 -1 x57 -1 x58 -1 x59 -1 x60 -1 x73 -1 x121 -1 x122 -1 x123 -1 x124 -1 x125 -1 x126 -1 x127 -1 x128 -1 x129 -1 x130 -1 x131 -1 x132 -1 x133 -1 x134 -1 x135 -1 x92 -1 x93 -1 x94 -1 x95 -1 x96 -1 x97 -1 x98 -1 x99 -1 x100 -1 x101 -1 x102 -1 x103 -1 x104 -1 x105 -1 x106 -1 x107 -1 x108 -1 x109 -1 x110 -1 x111 -1 x112 -1 x113 -1 x114 -1 x115 -1 x116 -1 x117 -1 x118 -1 x119 -1 x120 -1 x121 -1 x122 -1 x123 -1 x124 -1 x125 -1 x126 -1 x127 -1 x128 -1 x129 -1 x130 -1 x131 -1 x132 -1 x133 -1 x134 -1 x135 +106 x138 >= 0;
 -1 ~x12 -1 ~x16 -1 ~x17 -1 ~x18 -1 ~x19 -1 ~x20 -1 ~x21 -1 ~x22 -1 ~x23 -1 ~x24 -1 ~x25 -1 ~x26 -1 ~x27 -1 ~x28 -1 ~x29 -1 ~x30 -1 ~x31 -1 ~x32 -1 ~x33 -1 ~x34 -1 ~x35 -1 ~x36 -1 ~x37 -1 ~x38 -1 ~x39 -1 ~x40 -1 ~x41 -1 ~x42 -1 ~x43 -1 ~x44 -1 ~x45 -1 ~x46 -1 ~x47 -1 ~x48 -1 ~x49 -1 ~x50 -1 ~x51 -1 ~x52 -1 ~x53 -1 ~x54 -1 ~x55 -1 ~x56 -1 ~x57 -1 ~x58 -1 ~x59 -1 ~x60 -1 ~x73 -1 ~x121 -1 ~x122 -1 ~x123 -1 ~x124 -1 ~x125 -1 ~x126 -1 ~x127 -1 ~x128 -1 ~x129 -1 ~x130 -1 ~x131 -1 ~x132 -1 ~x133 -1 ~x134 -1 ~x135 -1 ~x92 -1 ~x93 -1 ~x94 -1 ~x95 -1 ~x96 -1 ~x97 -1 ~x98 -1 ~x99 -1 ~x100 -1 ~x101 -1 ~x102 -1 ~x103 -1 ~x104 -1 ~x105 -1 ~x106 -1 ~x107 -1 ~x108 -1 ~x109 -1 ~x110 -1 ~x111 -1 ~x112 -1 ~x113 -1 ~x114 -1 ~x115 -1 ~x116 -1 ~x117 -1 ~x118 -1 ~x119 -1 ~x120 -1 ~x121 -1 ~x122 -1 ~x123 -1 ~x124 -1 ~x125 -1 ~x126 -1 ~x127 -1 ~x128 -1 ~x129 -1 ~x130 -1 ~x131 -1 ~x132 -1 ~x133 -1 ~x134 -1 ~x135 +106 ~x138 >= -105;
 -1 x13 -1 x16 -1 x17 -1 x18 -1 x19 -1 x20 -1 x21 -1 x22 -1 x23 -1 x24 -1 x25 -1 x26 -1 x27 -1 x28 -1 x29 -1 x30 -1 x31 -1 x32 -1 x33 -1 x34 -1 x35 -1 x36 -1 x37 -1 x38 -1 x39 -1 x40 -1 x41 -1 x42 -1 x43 -1 x44 -1 x45 -1 x46 -1 x47 -1 x48 -1 x49 -1 x50 -1 x51 -1 x52 -1 x53 -1 x54 -1 x55 -1 x56 -1 x57 -1 x58 -1 x59 -1 x60 -1 x74 -1 x121 -1 x122 -1 x123 -1 x124 -1 x125 -1 x126 -1 x127 -1 x128 -1 x129 -1 x130 -1 x131 -1 x132 -1 x133 -1 x134 -1 x135 -1 x92 -1 x93 -1 x94 -1 x95 -1 x96 -1 x97 -1 x98 -1 x99 -1 x100 -1 x101 -1 x102 -1 x103 -1 x104 -1 x105 -1 x106 -1 x107 -1 x108 -1 x109 -1 x110 -1 x111 -1 x112 -1 x113 -1 x114 -1 x115 -1 x116 -1 x117 -1 x118 -1 x119 -1 x120 -1 x121 -1 x122 -1 x123 -1 x124 -1 x125 -1 x126 -1 x127 -1 x128 -1 x129 -1 x130 -1 x131 -1 x132 -1 x133 -1 x134 -1 x135 +106 x139 >= 0;
 -1 ~x13 -1 ~x16 -1 ~x17 -1 ~x18 -1 ~x19 -1 ~x20 -1 ~x21 -1 ~x22 -1 ~x23 -1 ~x24 -1 ~x25 -1 ~x26 -1 ~x27 -1 ~x28 -1 ~x29 -1 ~x30 -1 ~x31 -1 ~x32 -1 ~x33 -1 ~x34 -1 ~x35 -1 ~x36 -1 ~x37 -1 ~x38 -1 ~x39 -1 ~x40 -1 ~x41 -1 ~x42 -1 ~x43 -1 ~x44 -1 ~x45 -1 ~x46 -1 ~x47 -1 ~x48 -1 ~x49 -1 ~x50 -1 ~x51 -1 ~x52 -1 ~x53 -1 ~x54 -1 ~x55 -1 ~x56 -1 ~x57 -1 ~x58 -1 ~x59 -1 ~x60 -1 ~x74 -1 ~x121 -1 ~x122 -1 ~x123 -1 ~x124 -1 ~x125 -1 ~x126 -1 ~x127 -1 ~x128 -1 ~x129 -1 ~x130 -1 ~x131 -1 ~x132 -1 ~x133 -1 ~x134 -1 ~x135 -1 ~x92 -1 ~x93 -1 ~x94 -1 ~x95 -1 ~x96 -1 ~x97 -1 ~x98 -1 ~x99 -1 ~x100 -1 ~x101 -1 ~x102 -1 ~x103 -1 ~x104 -1 ~x105 -1 ~x106 -1 ~x107 -1 ~x108 -1 ~x109 -1 ~x110 -1 ~x111 -1 ~x112 -1 ~x113 -1 ~x114 -1 ~x115 -1 ~x116 -1 ~x117 -1 ~x118 -1 ~x119 -1 ~x120 -1 ~x121 -1 ~x122 -1 ~x123 -1 ~x124 -1 ~x125 -1 ~x126 -1 ~x127 -1 ~x128 -1 ~x129 -1 ~x130 -1 ~x131 -1 ~x132 -1 ~x133 -1 ~x134 -1 ~x135 +106 ~x139 >= -105;
 -1 x14 -1 x16 -1 x17 -1 x18 -1 x19 -1 x20 -1 x21 -1 x22 -1 x23 -1 x24 -1 x25 -1 x26 -1 x27 -1 x28 -1 x29 -1 x30 -1 x31 -1 x32 -1 x33 -1 x34 -1 x35 -1 x36 -1 x37 -1 x38 -1 x39 -1 x40 -1 x41 -1 x42 -1 x43 -1 x44 -1 x45 -1 x46 -1 x47 -1 x48 -1 x49 -1 x50 -1 x51 -1 x52 -1 x53 -1 x54 -1 x55 -1 x56 -1 x57 -1 x58 -1 x59 -1 x60 -1 x75 -1 x121 -1 x122 -1 x123 -1 x124 -1 x125 -1 x126 -1 x127 -1 x128 -1 x129 -1 x130 -1 x131 -1 x132 -1 x133 -1 x134 -1 x135 -1 x92 -1 x93 -1 x94 -1 x95 -1 x96 -1 x97 -1 x98 -1 x99 -1 x100 -1 x101 -1 x102 -1 x103 -1 x104 -1 x105 -1 x106 -1 x107 -1 x108 -1 x109 -1 x110 -1 x111 -1 x112 -1 x113 -1 x114 -1 x115 -1 x116 -1 x117 -1 x118 -1 x119 -1 x120 -1 x121 -1 x122 -1 x123 -1 x124 -1 x125 -1 x126 -1 x127 -1 x128 -1 x129 -1 x130 -1 x131 -1 x132 -1 x133 -1 x134 -1 x135 +106 x140 >= 0;
 -1 ~x14 -1 ~x16 -1 ~x17 -1 ~x18 -1 ~x19 -1 ~x20 -1 ~x21 -1 ~x22 -1 ~x23 -1 ~x24 -1 ~x25 -1 ~x26 -1 ~x27 -1 ~x28 -1 ~x29 -1 ~x30 -1 ~x31 -1 ~x32 -1 ~x33 -1 ~x34 -1 ~x35 -1 ~x36 -1 ~x37 -1 ~x38 -1 ~x39 -1 ~x40 -1 ~x41 -1 ~x42 -1 ~x43 -1 ~x44 -1 ~x45 -1 ~x46 -1 ~x47 -1 ~x48 -1 ~x49 -1 ~x50 -1 ~x51 -1 ~x52 -1 ~x53 -1 ~x54 -1 ~x55 -1 ~x56 -1 ~x57 -1 ~x58 -1 ~x59 -1 ~x60 -1 ~x75 -1 ~x121 -1 ~x122 -1 ~x123 -1 ~x124 -1 ~x125 -1 ~x126 -1 ~x127 -1 ~x128 -1 ~x129 -1 ~x130 -1 ~x131 -1 ~x132 -1 ~x133 -1 ~x134 -1 ~x135 -1 ~x92 -1 ~x93 -1 ~x94 -1 ~x95 -1 ~x96 -1 ~x97 -1 ~x98 -1 ~x99 -1 ~x100 -1 ~x101 -1 ~x102 -1 ~x103 -1 ~x104 -1 ~x105 -1 ~x106 -1 ~x107 -1 ~x108 -1 ~x109 -1 ~x110 -1 ~x111 -1 ~x112 -1 ~x113 -1 ~x114 -1 ~x115 -1 ~x116 -1 ~x117 -1 ~x118 -1 ~x119 -1 ~x120 -1 ~x121 -1 ~x122 -1 ~x123 -1 ~x124 -1 ~x125 -1 ~x126 -1 ~x127 -1 ~x128 -1 ~x129 -1 ~x130 -1 ~x131 -1 ~x132 -1 ~x133 -1 ~x134 -1 ~x135 +106 ~x140 >= -105;
 -1 x15 -1 x16 -1 x17 -1 x18 -1 x19 -1 x20 -1 x21 -1 x22 -1 x23 -1 x24 -1 x25 -1 x26 -1 x27 -1 x28 -1 x29 -1 x30 -1 x31 -1 x32 -1 x33 -1 x34 -1 x35 -1 x36 -1 x37 -1 x38 -1 x39 -1 x40 -1 x41 -1 x42 -1 x43 -1 x44 -1 x45 -1 x46 -1 x47 -1 x48 -1 x49 -1 x50 -1 x51 -1 x52 -1 x53 -1 x54 -1 x55 -1 x56 -1 x57 -1 x58 -1 x59 -1 x60 -1 x76 -1 x121 -1 x122 -1 x123 -1 x124 -1 x125 -1 x126 -1 x127 -1 x128 -1 x129 -1 x130 -1 x131 -1 x132 -1 x133 -1 x134 -1 x135 -1 x92 -1 x93 -1 x94 -1 x95 -1 x96 -1 x97 -1 x98 -1 x99 -1 x100 -1 x101 -1 x102 -1 x103 -1 x104 -1 x105 -1 x106 -1 x107 -1 x108 -1 x109 -1 x110 -1 x111 -1 x112 -1 x113 -1 x114 -1 x115 -1 x116 -1 x117 -1 x118 -1 x119 -1 x120 -1 x121 -1 x122 -1 x123 -1 x124 -1 x125 -1 x126 -1 x127 -1 x128 -1 x129 -1 x130 -1 x131 -1 x132 -1 x133 -1 x134 -1 x135 +106 x141 >= 0;
 -1 ~x15 -1 ~x16 -1 ~x17 -1 ~x18 -1 ~x19 -1 ~x20 -1 ~x21 -1 ~x22 -1 ~x23 -1 ~x24 -1 ~x25 -1 ~x26 -1 ~x27 -1 ~x28 -1 ~x29 -1 ~x30 -1 ~x31 -1 ~x32 -1 ~x33 -1 ~x34 -1 ~x35 -1 ~x36 -1 ~x37 -1 ~x38 -1 ~x39 -1 ~x40 -1 ~x41 -1 ~x42 -1 ~x43 -1 ~x44 -1 ~x45 -1 ~x46 -1 ~x47 -1 ~x48 -1 ~x49 -1 ~x50 -1 ~x51 -1 ~x52 -1 ~x53 -1 ~x54 -1 ~x55 -1 ~x56 -1 ~x57 -1 ~x58 -1 ~x59 -1 ~x60 -1 ~x76 -1 ~x121 -1 ~x122 -1 ~x123 -1 ~x124 -1 ~x125 -1 ~x126 -1 ~x127 -1 ~x128 -1 ~x129 -1 ~x130 -1 ~x131 -1 ~x132 -1 ~x133 -1 ~x134 -1 ~x135 -1 ~x92 -1 ~x93 -1 ~x94 -1 ~x95 -1 ~x96 -1 ~x97 -1 ~x98 -1 ~x99 -1 ~x100 -1 ~x101 -1 ~x102 -1 ~x103 -1 ~x104 -1 ~x105 -1 ~x106 -1 ~x107 -1 ~x108 -1 ~x109 -1 ~x110 -1 ~x111 -1 ~x112 -1 ~x113 -1 ~x114 -1 ~x115 -1 ~x116 -1 ~x117 -1 ~x118 -1 ~x119 -1 ~x120 -1 ~x121 -1 ~x122 -1 ~x123 -1 ~x124 -1 ~x125 -1 ~x126 -1 ~x127 -1 ~x128 -1 ~x129 -1 ~x130 -1 ~x131 -1 ~x132 -1 ~x133 -1 ~x134 -1 ~x135 +106 ~x141 >= -105;
 -1 x2 -1 x16 -1 x17 -1 x18 -1 x19 -1 x20 -1 x21 -1 x22 -1 x23 -1 x24 -1 x25 -1 x26 -1 x27 -1 x28 -1 x29 -1 x30 -1 x31 -1 x32 -1 x33 -1 x34 -1 x35 -1 x36 -1 x37 -1 x38 -1 x39 -1 x40 -1 x41 -1 x42 -1 x43 -1 x44 -1 x45 -1 x46 -1 x47 -1 x48 -1 x49 -1 x50 -1 x51 -1 x52 -1 x53 -1 x54 -1 x55 -1 x56 -1 x57 -1 x58 -1 x59 -1 x60 -1 x63 -1 x121 -1 x122 -1 x123 -1 x124 -1 x125 -1 x126 -1 x127 -1 x128 -1 x129 -1 x130 -1 x131 -1 x132 -1 x133 -1 x134 -1 x135 -1 x92 -1 x93 -1 x94 -1 x95 -1 x96 -1 x97 -1 x98 -1 x99 -1 x100 -1 x101 -1 x102 -1 x103 -1 x104 -1 x105 -1 x106 -1 x107 -1 x108 -1 x109 -1 x110 -1 x111 -1 x112 -1 x113 -1 x114 -1 x115 -1 x116 -1 x117 -1 x118 -1 x119 -1 x120 -1 x121 -1 x122 -1 x123 -1 x124 -1 x125 -1 x126 -1 x127 -1 x128 -1 x129 -1 x130 -1 x131 -1 x132 -1 x133 -1 x134 -1 x135 +106 x142 >= 0;
 -1 ~x2 -1 ~x16 -1 ~x17 -1 ~x18 -1 ~x19 -1 ~x20 -1 ~x21 -1 ~x22 -1 ~x23 -1 ~x24 -1 ~x25 -1 ~x26 -1 ~x27 -1 ~x28 -1 ~x29 -1 ~x30 -1 ~x31 -1 ~x32 -1 ~x33 -1 ~x34 -1 ~x35 -1 ~x36 -1 ~x37 -1 ~x38 -1 ~x39 -1 ~x40 -1 ~x41 -1 ~x42 -1 ~x43 -1 ~x44 -1 ~x45 -1 ~x46 -1 ~x47 -1 ~x48 -1 ~x49 -1 ~x50 -1 ~x51 -1 ~x52 -1 ~x53 -1 ~x54 -1 ~x55 -1 ~x56 -1 ~x57 -1 ~x58 -1 ~x59 -1 ~x60 -1 ~x63 -1 ~x121 -1 ~x122 -1 ~x123 -1 ~x124 -1 ~x125 -1 ~x126 -1 ~x127 -1 ~x128 -1 ~x129 -1 ~x130 -1 ~x131 -1 ~x132 -1 ~x133 -1 ~x134 -1 ~x135 -1 ~x92 -1 ~x93 -1 ~x94 -1 ~x95 -1 ~x96 -1 ~x97 -1 ~x98 -1 ~x99 -1 ~x100 -1 ~x101 -1 ~x102 -1 ~x103 -1 ~x104 -1 ~x105 -1 ~x106 -1 ~x107 -1 ~x108 -1 ~x109 -1 ~x110 -1 ~x111 -1 ~x112 -1 ~x113 -1 ~x114 -1 ~x115 -1 ~x116 -1 ~x117 -1 ~x118 -1 ~x119 -1 ~x120 -1 ~x121 -1 ~x122 -1 ~x123 -1 ~x124 -1 ~x125 -1 ~x126 -1 ~x127 -1 ~x128 -1 ~x129 -1 ~x130 -1 ~x131 -1 ~x132 -1 ~x133 -1 ~x134 -1 ~x135 +106 ~x142 >= -105;
* Move Conjunctions
* Valid Assignment
 +1 x1 +1 x2 +1 x3 +1 x4 +1 x5 +1 x6 +1 x7 +1 x8 +1 x9 +1 x10 +1 x11 +1 x12 +1 x13 +1 x14 +1 x15 +1 x61 = 1;
 +1 x62 +1 x63 +1 x64 +1 x65 +1 x66 +1 x67 +1 x68 +1 x69 +1 x70 +1 x71 +1 x72 +1 x73 +1 x74 +1 x75 +1 x76 +1 x136 = 1;
* Valid Usage
 -1 x61 +1 x16 +1 x17 +1 x18 +1 x19 +1 x20 +1 x21 +1 x22 +1 x23 +1 x24 +1 x25 +1 x26 +1 x27 +1 x28 +1 x29 +1 x30 = 0;
 -1 x61 +1 x31 +1 x32 +1 x33 +1 x34 +1 x35 +1 x36 +1 x37 +1 x38 +1 x39 +1 x40 +1 x41 +1 x42 +1 x43 +1 x44 +1 x45 = 0;
 -1 x61 +1 x46 +1 x47 +1 x48 +1 x49 +1 x50 +1 x51 +1 x52 +1 x53 +1 x54 +1 x55 +1 x56 +1 x57 +1 x58 +1 x59 +1 x60 = 0;
 -1 x136 +1 x121 +1 x122 +1 x123 +1 x124 +1 x125 +1 x126 +1 x127 +1 x128 +1 x129 +1 x130 +1 x131 +1 x132 +1 x133 +1 x134 +1 x135 = 0;
 -1 x136 +1 x92 +1 x93 +1 x94 +1 x95 +1 x96 +1 x97 +1 x98 +1 x99 +1 x100 +1 x101 +1 x102 +1 x103 +1 x104 +1 x105 = 0;
 -1 x136 +1 x106 +1 x107 +1 x108 +1 x109 +1 x110 +1 x111 +1 x112 +1 x113 +1 x114 +1 x115 +1 x116 +1 x117 +1 x118 +1 x119 +1 x120 = 0;
 -1 x136 +1 x121 +1 x122 +1 x123 +1 x124 +1 x125 +1 x126 +1 x127 +1 x128 +1 x129 +1 x130 +1 x131 +1 x132 +1 x133 +1 x134 +1 x135 = 0;
* Conflict Constraints
 +1 ~x62 +1 ~x1 >= 1;
 +1 ~x63 +1 ~x2 >= 1;
 +1 ~x64 +1 ~x3 >= 1;
 +1 ~x65 +1 ~x4 >= 1;
 +1 ~x66 +1 ~x5 >= 1;
 +1 ~x67 +1 ~x6 >= 1;
 +1 ~x68 +1 ~x7 >= 1;
 +1 ~x69 +1 ~x8 >= 1;
 +1 ~x70 +1 ~x9 >= 1;
 +1 ~x71 +1 ~x10 >= 1;
 +1 ~x72 +1 ~x11 >= 1;
 +1 ~x73 +1 ~x12 >= 1;
 +1 ~x74 +1 ~x13 >= 1;
 +1 ~x75 +1 ~x14 >= 1;
 +1 ~x76 +1 ~x15 >= 1;
* Usage Constraints
 +1 ~x31 +1 ~x121 >= 1;
 +1 ~x32 +1 ~x122 >= 1;
 +1 ~x33 +1 ~x123 >= 1;
 +1 ~x34 +1 ~x124 >= 1;
 +1 ~x35 +1 ~x125 >= 1;
 +1 ~x36 +1 ~x126 >= 1;
 +1 ~x37 +1 ~x127 >= 1;
 +1 ~x38 +1 ~x128 >= 1;
 +1 ~x39 +1 ~x129 >= 1;
 +1 ~x40 +1 ~x130 >= 1;
 +1 ~x41 +1 ~x131 >= 1;
 +1 ~x42 +1 ~x132 >= 1;
 +1 ~x43 +1 ~x133 >= 1;
 +1 ~x44 +1 ~x134 >= 1;
 +1 ~x45 +1 ~x135 >= 1;
 +1 ~x31 +1 ~x62 >= 1;
 +1 ~x32 +1 ~x63 >= 1;
 +1 ~x33 +1 ~x64 >= 1;
 +1 ~x34 +1 ~x65 >= 1;
 +1 ~x35 +1 ~x66 >= 1;
 +1 ~x36 +1 ~x67 >= 1;
 +1 ~x37 +1 ~x68 >= 1;
 +1 ~x38 +1 ~x69 >= 1;
 +1 ~x39 +1 ~x70 >= 1;
 +1 ~x40 +1 ~x71 >= 1;
 +1 ~x41 +1 ~x72 >= 1;
 +1 ~x42 +1 ~x73 >= 1;
 +1 ~x43 +1 ~x74 >= 1;
 +1 ~x44 +1 ~x75 >= 1;
 +1 ~x45 +1 ~x76 >= 1;
 +1 ~x121 +1 ~x31 >= 1;
 +1 ~x122 +1 ~x32 >= 1;
 +1 ~x123 +1 ~x33 >= 1;
 +1 ~x124 +1 ~x34 >= 1;
 +1 ~x125 +1 ~x35 >= 1;
 +1 ~x126 +1 ~x36 >= 1;
 +1 ~x127 +1 ~x37 >= 1;
 +1 ~x128 +1 ~x38 >= 1;
 +1 ~x129 +1 ~x39 >= 1;
 +1 ~x130 +1 ~x40 >= 1;
 +1 ~x131 +1 ~x41 >= 1;
 +1 ~x132 +1 ~x42 >= 1;
 +1 ~x133 +1 ~x43 >= 1;
 +1 ~x134 +1 ~x44 >= 1;
 +1 ~x135 +1 ~x45 >= 1;
 +1 ~x121 +1 ~x1 >= 1;
 +1 ~x122 +1 ~x2 >= 1;
 +1 ~x123 +1 ~x3 >= 1;
 +1 ~x124 +1 ~x4 >= 1;
 +1 ~x125 +1 ~x5 >= 1;
 +1 ~x126 +1 ~x6 >= 1;
 +1 ~x127 +1 ~x7 >= 1;
 +1 ~x128 +1 ~x8 >= 1;
 +1 ~x129 +1 ~x9 >= 1;
 +1 ~x130 +1 ~x10 >= 1;
 +1 ~x131 +1 ~x11 >= 1;
 +1 ~x132 +1 ~x12 >= 1;
 +1 ~x133 +1 ~x13 >= 1;
 +1 ~x134 +1 ~x14 >= 1;
 +1 ~x135 +1 ~x15 >= 1;
 +1 ~x106 +1 ~x1 >= 1;
 +1 ~x107 +1 ~x2 >= 1;
 +1 ~x108 +1 ~x3 >= 1;
 +1 ~x109 +1 ~x4 >= 1;
 +1 ~x110 +1 ~x5 >= 1;
 +1 ~x111 +1 ~x6 >= 1;
 +1 ~x112 +1 ~x7 >= 1;
 +1 ~x113 +1 ~x8 >= 1;
 +1 ~x114 +1 ~x9 >= 1;
 +1 ~x115 +1 ~x10 >= 1;
 +1 ~x116 +1 ~x11 >= 1;
 +1 ~x117 +1 ~x12 >= 1;
 +1 ~x118 +1 ~x13 >= 1;
 +1 ~x119 +1 ~x14 >= 1;
 +1 ~x120 +1 ~x15 >= 1;
 +1 ~x121 +1 ~x1 >= 1;
 +1 ~x122 +1 ~x2 >= 1;
 +1 ~x123 +1 ~x3 >= 1;
 +1 ~x124 +1 ~x4 >= 1;
 +1 ~x125 +1 ~x5 >= 1;
 +1 ~x126 +1 ~x6 >= 1;
 +1 ~x127 +1 ~x7 >= 1;
 +1 ~x128 +1 ~x8 >= 1;
 +1 ~x129 +1 ~x9 >= 1;
 +1 ~x130 +1 ~x10 >= 1;
 +1 ~x131 +1 ~x11 >= 1;
 +1 ~x132 +1 ~x12 >= 1;
 +1 ~x133 +1 ~x13 >= 1;
 +1 ~x134 +1 ~x14 >= 1;
 +1 ~x135 +1 ~x15 >= 1;
